(set-logic ALL)
(set-option :produce-models true)
(declare-sort BoundSet 0)
(declare-sort UnboundSet 0)
(declare-fun 1922 () UnboundSet)
(declare-fun 1913 () UnboundSet)
(declare-fun IsIn (BoundSet UnboundSet) Bool)
(declare-fun IsNegligible (BoundSet UnboundSet) Bool)
(declare-fun ( (Bool) Bool)
(declare-fun IsComparedTo (BoundSet BoundSet) Bool)
(declare-fun AreNotCausedBy (BoundSet BoundSet) Bool)
(assert (not (=> (exists ((c BoundSet)) (exists ((b BoundSet)) (exists ((e BoundSet)) (exists ((f BoundSet)) (and (exists ((a BoundSet)) (( (and (IsIn b 1922) (and (IsIn a 1922) (and (IsIn c 1913) (and (IsIn a 1913) (and (IsNegligible e 1913) (IsNegligible e 1922)))))))) (IsComparedTo e f)))))) (exists ((h BoundSet)) (exists ((g BoundSet)) (not (AreNotCausedBy g h)))))))
(check-sat)
(get-model)